p cnf 77 258
-3 -1 0
-3 2 0
1 -2 3 0
-4 3 0
-4 -3 0
8 -7 0
8 6 0
7 -6 -8 0
-9 -6 0
-9 -8 0
6 8 9 0
10 5 0
10 9 0
-5 -9 -10 0
4 10 -11 0
-4 -10 -11 0
4 -10 11 0
-4 10 11 0
-14 -2 0
-14 -13 0
2 13 14 0
-14 8 -15 0
14 -8 -15 0
-14 -8 15 0
14 8 15 0
16 -12 0
16 -15 0
12 15 -16 0
17 -18 -19 0
-17 18 -19 0
17 18 19 0
-17 -18 19 0
-21 19 0
-21 20 0
-19 -20 21 0
23 -22 0
23 8 0
22 -8 -23 0
21 -23 -24 0
-21 23 -24 0
21 23 24 0
-21 -23 24 0
-25 8 0
-25 17 0
-8 -17 25 0
24 -25 -26 0
-24 25 -26 0
24 25 26 0
-24 -25 26 0
-27 -20 -28 0
27 20 -28 0
-27 20 28 0
27 -20 28 0
-17 -28 -29 0
17 28 -29 0
-17 28 29 0
17 -28 29 0
-30 -29 0
-30 24 0
29 -24 30 0
21 30 -31 0
-21 -30 -31 0
21 -30 31 0
-21 30 31 0
32 -26 0
32 31 0
26 -31 -32 0
-33 16 0
-33 32 0
-16 -32 33 0
11 -33 -34 0
-11 33 -34 0
11 33 34 0
-11 -33 34 0
35 -8 0
35 -12 0
8 12 -35 0
-36 -1 0
-36 35 0
1 -35 36 0
38 14 0
38 -37 0
-14 37 -38 0
-39 2 0
-39 -35 0
-2 35 39 0
-38 -39 -40 0
38 39 -40 0
-38 39 40 0
38 -39 40 0
41 18 0
41 20 0
-18 -20 -41 0
42 8 0
42 -41 0
-8 41 -42 0
-42 -37 -43 0
42 37 -43 0
-42 37 43 0
42 -37 43 0
-40 43 -44 0
40 -43 -44 0
-40 -43 44 0
40 43 44 0
45 35 0
45 2 0
-35 -2 -45 0
45 -14 -46 0
-45 14 -46 0
45 14 46 0
-45 -14 46 0
47 -37 0
47 -42 0
37 42 -47 0
-46 47 -48 0
46 -47 -48 0
-46 -47 48 0
46 47 48 0
-44 -48 -49 0
44 48 -49 0
-44 48 49 0
44 -48 49 0
50 12 0
50 -28 0
-12 28 -50 0
-50 -21 -51 0
50 21 -51 0
-50 21 51 0
50 -21 51 0
24 -52 -53 0
-24 52 -53 0
24 52 53 0
-24 -52 53 0
-54 51 0
-54 -53 0
-51 53 54 0
55 -6 0
55 3 0
6 -3 -55 0
56 -2 0
56 55 0
2 -55 -56 0
1 -6 -57 0
-1 6 -57 0
1 6 57 0
-1 -6 57 0
-58 56 0
-58 57 0
-56 -57 58 0
59 -30 0
59 17 0
30 -17 -59 0
-14 -23 -60 0
14 23 -60 0
-14 23 60 0
14 -23 60 0
61 59 0
61 -60 0
-59 60 -61 0
-18 -42 -62 0
18 42 -62 0
-18 42 62 0
18 -42 62 0
63 62 0
63 -19 0
-62 19 -63 0
-64 -61 0
-64 63 0
61 -63 64 0
65 -58 0
65 -64 0
58 64 -65 0
-66 -54 0
-66 -65 0
54 65 66 0
-49 -66 -67 0
49 66 -67 0
-49 66 67 0
49 -66 67 0
36 67 -68 0
-36 -67 -68 0
36 -67 68 0
-36 67 68 0
34 -68 -69 0
-34 68 -69 0
34 68 69 0
-34 -68 69 0
70 22 0
70 -6 0
-22 6 -70 0
71 -27 0
71 -18 0
27 18 -71 0
-3 -71 -72 0
3 71 -72 0
-3 71 72 0
3 -71 72 0
-73 70 0
-73 72 0
-70 -72 73 0
-73 -15 -74 0
73 15 -74 0
-73 15 74 0
73 -15 74 0
-75 -30 0
-75 7 0
30 -7 75 0
-74 75 -76 0
74 -75 -76 0
-74 -75 76 0
74 75 76 0
-77 69 0
-77 76 0
-69 -76 77 0
-18 20 11 -4 0
-73 -53 67 -32 35 14 0
3 -8 0
22 -52 -51 0
-70 5 -74 0
-39 63 -6 34 -49 3 0
-33 75 30 14 32 0
55 -25 0
-20 55 50 -66 56 0
-77 29 22 12 72 0
-8 -25 -33 -34 64 -76 0
-42 -18 53 -43 -16 0
37 27 0
-53 -55 63 -44 0
-21 -11 -9 44 8 0
-35 11 0
-28 70 -77 27 0
-13 -32 -73 12 57 0
-4 26 25 0
-2 27 -50 0
-63 48 -45 -43 0
40 20 0
-46 -10 30 20 23 0
-25 59 69 0
33 -72 -73 -68 0
11 57 34 -18 62 0
32 -21 66 13 3 0
73 17 27 47 7 0
55 -50 58 -39 0
75 -59 -57 -6 -67 44 0
30 35 -55 -18 -42 0
22 1 -64 39 -9 -7 0
50 19 48 -40 65 17 0
-38 66 0
-30 56 38 51 0
-46 -5 49 -68 0
-37 -47 0
-59 -67 73 0
-12 5 74 0
-25 -38 32 13 0
-44 -52 0
-48 64 6 0
-65 60 54 0
77 0
